Route #1: 1 24 52 21 43 67 69 17
Route #2: 77 23 44 26 11 64 40 53
Route #3: 42 16 66 60 6 68 18 25 10
Route #4: 41 14 36 9 19 4 59 35 55 33 13
Route #5: 28 74 48 39 61 50
Route #6: 62 54 20 3 76 7 47
Route #7: 49 30 37 70 29 57 75
Route #8: 65 5 63 27 2
Route #9: 72 58 38 56 8 22 71 45 51
Route #10: 15 12 34 46 31 73 32
Cost 1271